(set-info :Origin "This instance was generated by: BanditFuzz-- an RL fuzzer for SMT solvers" )
(set-info :Author "Joe Scott, Fed Mora, Vijay Ganesh" )
(set-info :Contact "Joe Scott, joseph.scott@uwaterloo.ca")
(set-logic QF_BV)
(declare-const bool_0 Bool)
(declare-const bool_1 Bool)
(declare-const bool_2 Bool)
(declare-const bool_3 Bool)
(declare-const bool_4 Bool)
(declare-const bv_0 (_ BitVec 32))
(declare-const bv_1 (_ BitVec 32))
(declare-const bv_2 (_ BitVec 32))
(declare-const bv_3 (_ BitVec 32))
(declare-const bv_4 (_ BitVec 32))
(assert (or (bvslt (bvshl #xcc8c50e8  #x47fae515 ) (bvsub bv_0 #xf9b20186 )) (bvule (bvashr #xdca685da  bv_2) (bvor #xdb20e644  #x904bc940 ))))
(assert (bvsle (bvxnor (bvsub bv_0 bv_2) (bvnand bv_2 #x72b16431 )) (bvadd (bvsub bv_0 bv_0) (bvsdiv #x8e0467e0  bv_2))))
(assert (bvsle (bvxor (bvmul bv_3 #x39ce4169 ) (bvsub bv_1 #xd94a242b )) (bvmul (bvlshr bv_2 bv_1) (bvudiv #x4f0e21d0  #xdccff1de ))))
(assert (and (xor (bvule #x72bdfa17  #x75d4570f ) (bvsle #xb5d42272  #x37436bd5 )) (bvugt (bvand bv_2 #xd820ab2e ) (bvnand bv_4 #x1ac42005 ))))
(assert (bvule (bvxor (bvnor bv_2 #xd5d03b72 ) (bvxor #xf3c94b24  #x5b13c391 )) (bvsdiv (bvadd #x39b91db5  bv_2) (bvsmod #x383dc29b  #xc20ede62 ))))
(check-sat)
(exit)
